
Gurobi 12.0.0 (mac64[arm]) logging started Thu Apr 17 11:31:09 2025

Set parameter LogFile to value "gurobi_output_2.txt"
Gurobi Optimizer version 12.0.0 build v12.0.0rc1 (mac64[arm] - Darwin 24.3.0 24D81)

CPU model: Apple M4 Pro
Thread count: 12 physical cores, 12 logical processors, using up to 8 threads

Non-default parameters:
TimeLimit  600
Threads  8

Optimize a model with 2473033 rows, 1187000 columns and 10941571 nonzeros
Model fingerprint: 0x44d1cf17
Variable types: 0 continuous, 1187000 integer (1186695 binary)
Coefficient statistics:
  Matrix range     [1e+00, 4e+02]
  Objective range  [2e+00, 2e+02]
  Bounds range     [1e+00, 1e+00]
  RHS range        [1e+00, 6e+02]
Presolve removed 2346825 rows and 1045249 columns
Presolve time: 0.87s
Presolved: 126208 rows, 141751 columns, 1223226 nonzeros
Variable types: 0 continuous, 141751 integer (141645 binary)
Performing another presolve...
Presolve removed 8620 rows and 169 columns
Presolve time: 1.55s
Deterministic concurrent LP optimizer: primal simplex, dual simplex, and barrier
Showing barrier log only...

Root barrier log...

Ordering time: 1.30s

Barrier statistics:
 Dense cols : 100
 AA' NZ     : 2.017e+06
 Factor NZ  : 5.772e+06 (roughly 160 MB of memory)
 Factor Ops : 2.608e+09 (less than 1 second per iteration)
 Threads    : 5

                  Objective                Residual
Iter       Primal          Dual         Primal    Dual     Compl     Time
   0   4.71869584e+07 -4.09503991e+06  1.09e+04 0.00e+00  4.60e+03     6s
   1   2.59951118e+07 -3.66758367e+07  5.89e+03 6.00e+01  2.44e+03     6s
   2   1.78346565e+07 -5.39507481e+07  4.04e+03 1.31e+01  1.58e+03     6s
   3   2.48932696e+06 -4.38205944e+07  5.56e+02 4.26e+00  3.10e+02     6s
   4   3.65251243e+05 -9.41751528e+06  7.36e+01 2.61e-11  4.49e+01     6s
   5   7.71480016e+04 -1.61528650e+06  8.83e+00 4.32e-12  6.04e+00     7s
   6   4.20294762e+04 -4.06478948e+05  1.14e+00 2.18e-13  1.24e+00     7s
   7   3.46928368e+04 -2.23971161e+05  1.29e-01 1.27e-13  6.66e-01     7s
   8   3.13872395e+04 -1.38900891e+05  6.77e-02 1.59e-04  4.36e-01     7s
   9   2.94443111e+04 -9.57763597e+04  5.24e-02 3.24e-04  3.20e-01     7s
  10   2.59133325e+04 -6.92983074e+04  3.57e-02 3.04e-04  2.43e-01     7s
  11   2.36627718e+04 -4.62653733e+04  2.87e-02 2.27e-04  1.79e-01     7s
  12   2.18470922e+04 -2.55138909e+04  2.29e-02 2.20e-04  1.21e-01     7s
  13   1.89738180e+04 -1.72734278e+04  1.73e-02 1.60e-04  9.25e-02     7s
  14   1.63287139e+04 -7.50651525e+03  1.30e-02 1.55e-04  6.08e-02     7s
  15   1.52075872e+04 -4.75144021e+03  1.14e-02 1.50e-04  5.09e-02     7s
  16   1.37031065e+04 -2.87837202e+03  9.24e-03 1.43e-04  4.23e-02     7s
  17   1.26926867e+04 -4.30025124e+02  7.85e-03 2.54e-04  3.35e-02     7s
  18   1.14726731e+04  9.11333225e+02  6.58e-03 3.66e-04  2.69e-02     7s
  19   1.05524780e+04  2.04145447e+03  5.71e-03 7.45e-04  2.17e-02     8s
  20   9.72441123e+03  2.70998827e+03  4.78e-03 7.48e-04  1.79e-02     8s
  21   9.30997764e+03  3.11082912e+03  4.36e-03 6.88e-04  1.58e-02     8s
  22   8.65149165e+03  3.58337661e+03  3.74e-03 7.26e-04  1.29e-02     8s
  23   7.93037699e+03  3.82789716e+03  3.07e-03 7.50e-04  1.05e-02     8s
  24   7.02875920e+03  4.04746285e+03  2.13e-03 8.31e-04  7.60e-03     8s
  25   6.77413957e+03  4.31663299e+03  1.87e-03 7.06e-04  6.27e-03     8s
  26   6.35215842e+03  4.42767201e+03  1.44e-03 7.21e-04  4.91e-03     8s
  27   6.22127666e+03  4.59303823e+03  1.30e-03 5.61e-04  4.15e-03     8s
  28   5.90632121e+03  4.62326240e+03  9.58e-04 5.28e-04  3.27e-03     8s
  29   5.67500024e+03  4.72334331e+03  7.30e-04 3.78e-04  2.43e-03     8s
  30   5.53728460e+03  4.79626019e+03  5.91e-04 3.29e-04  1.89e-03     8s
  31   5.40840936e+03  4.86115631e+03  4.53e-04 2.45e-04  1.40e-03     8s
  32   5.29285928e+03  4.89857227e+03  3.37e-04 1.56e-04  1.01e-03     9s
  33   5.20102746e+03  4.94025072e+03  2.41e-04 1.85e-04  6.65e-04     9s
  34   5.13166254e+03  4.95638788e+03  1.60e-04 1.06e-04  4.47e-04     9s
  35   5.07971338e+03  4.96257418e+03  1.01e-04 7.97e-05  2.99e-04     9s
  36   5.05038653e+03  4.96779436e+03  6.82e-05 6.06e-05  2.11e-04     9s
  37   5.03935370e+03  4.97657619e+03  5.59e-05 3.47e-05  1.60e-04     9s
  38   5.01911101e+03  4.98180093e+03  3.35e-05 1.73e-05  9.51e-05     9s
  39   5.01911101e+03  4.98180093e+03  3.35e-05 1.73e-05  9.51e-05     9s
  40   1.00733048e+09 -2.41582655e+07  2.32e+05 0.00e+00  5.18e+05     9s
  41   8.42312015e+08 -2.73857734e+08  1.93e+05 2.32e+02  3.36e+05     9s
  42   4.51297292e+08 -5.11892080e+08  1.03e+05 1.29e+00  1.61e+05     9s
  43   9.61201616e+06 -4.84053565e+08  2.18e+03 1.49e+00  4.55e+03    10s
  44   2.05057236e+06 -2.19932569e+08  4.56e+02 2.23e-01  1.15e+03    10s
  45   4.44730109e+05 -9.01012086e+07  9.00e+01 7.37e-02  3.28e+02    10s
  46   1.17686607e+05 -4.53090056e+07  1.67e+01 3.42e-02  1.31e+02    10s
  47   7.51641480e+04 -1.46636491e+07  7.66e+00 1.00e-02  4.19e+01    10s
  48   6.17522950e+04 -2.28529308e+06  4.82e+00 1.24e-03  7.07e+00    10s
  49   4.63590202e+04 -1.31782930e+06  1.64e+00 6.75e-04  3.74e+00    10s
  50   3.76489992e+04 -6.49427641e+05  1.86e-02 3.27e-04  1.75e+00    10s
  51   3.66747421e+04 -4.28192477e+05  8.64e-03 2.13e-04  1.18e+00    10s
  52   3.60889416e+04 -3.62819428e+05  6.91e-03 1.87e-04  1.02e+00    10s
  53   3.38328176e+04 -2.97257016e+05  2.64e-03 1.54e-04  8.43e-01    10s
  54   3.20399443e+04 -1.76854626e+05  1.99e-03 8.69e-05  5.32e-01    10s
  55   3.05748920e+04 -1.56355969e+05  1.58e-03 7.46e-05  4.76e-01    10s
  56   2.81433187e+04 -1.06051629e+05  1.08e-03 6.93e-05  3.42e-01    10s
  57   2.30937066e+04 -7.51895483e+04  5.11e-04 5.81e-05  2.50e-01    10s
  58   2.00577883e+04 -4.54074767e+04  3.84e-04 4.75e-05  1.67e-01    10s
  59   1.67158824e+04 -2.89555741e+04  2.73e-04 1.11e-04  1.16e-01    11s
  60   1.43784318e+04 -2.26442781e+04  2.09e-04 1.19e-04  9.42e-02    11s
  61   1.31225244e+04 -1.69429856e+04  1.74e-04 9.60e-05  7.65e-02    11s
  62   1.17863354e+04 -1.22151168e+04  1.38e-04 7.78e-05  6.11e-02    11s
  63   1.01137510e+04 -6.16938168e+03  9.79e-05 6.12e-05  4.14e-02    11s
  64   9.37445211e+03 -3.94792240e+03  8.21e-05 5.07e-05  3.39e-02    11s
  65   8.55419025e+03 -1.38636495e+03  6.50e-05 3.92e-05  2.53e-02    11s
  66   7.86344514e+03  8.21669728e+00  5.16e-05 3.85e-05  2.00e-02    11s
  67   7.32453104e+03  1.47146195e+03  4.12e-05 3.90e-05  1.49e-02    11s
  68   6.57765477e+03  2.23487502e+03  2.71e-05 3.37e-05  1.11e-02    11s
  69   6.28046044e+03  2.76718950e+03  2.17e-05 2.84e-05  8.94e-03    12s
  70   6.12503508e+03  3.45619590e+03  1.89e-05 2.64e-05  6.79e-03    12s
  71   5.93830132e+03  3.71170192e+03  1.57e-05 2.65e-05  5.67e-03    12s
  72   5.64812925e+03  3.99313659e+03  1.07e-05 2.06e-05  4.21e-03    12s
  73   5.48622520e+03  4.35838296e+03  8.04e-06 1.25e-05  2.87e-03    12s
  74   5.35339116e+03  4.50114431e+03  5.84e-06 1.01e-05  2.17e-03    12s
  75   5.29024199e+03  4.68477346e+03  4.80e-06 7.37e-06  1.54e-03    12s
  76   5.18744204e+03  4.76110943e+03  3.26e-06 5.45e-06  1.09e-03    12s
  77   5.12504145e+03  4.82370387e+03  2.21e-06 3.88e-06  7.67e-04    13s
  78   5.08099577e+03  4.86520241e+03  1.48e-06 2.89e-06  5.49e-04    13s
  79   5.03535352e+03  4.91355440e+03  7.32e-07 1.73e-06  3.10e-04    13s
  80   5.01436902e+03  4.95053419e+03  3.99e-07 8.69e-07  1.62e-04    13s
  81   5.00408895e+03  4.96424783e+03  2.39e-07 5.45e-07  1.01e-04    13s
  82   4.99994714e+03  4.97649296e+03  1.76e-07 4.42e-05  5.97e-05    13s
  83   4.99515748e+03  4.98016457e+03  1.04e-07 5.42e-05  3.82e-05    13s
  84   4.99100690e+03  4.98440404e+03  4.40e-08 2.55e-05  1.68e-05    13s
  85   4.99100690e+03  4.98440404e+03  4.40e-08 2.55e-05  1.68e-05    13s
  86   4.99100690e+03  4.98440404e+03  4.40e-08 2.55e-05  1.68e-05    14s
  87   4.99100690e+03  4.98440404e+03  4.40e-08 2.55e-05  1.68e-05    14s
  88   4.99100690e+03  4.98440404e+03  4.40e-08 2.55e-05  1.68e-05    14s
  89   4.99100690e+03  4.98440404e+03  4.40e-08 2.55e-05  1.68e-05    14s
  90   4.99100690e+03  4.98440404e+03  4.40e-08 2.55e-05  1.68e-05    14s
  91   4.99100690e+03  4.98440404e+03  4.40e-08 2.55e-05  1.68e-05    14s
  92   4.99100690e+03  4.98440404e+03  4.40e-08 2.55e-05  1.68e-05    14s
  93   4.99100690e+03  4.98440404e+03  4.40e-08 2.55e-05  1.68e-05    14s
  94   4.99100690e+03  4.98440404e+03  4.40e-08 2.55e-05  1.68e-05    15s

Barrier performed 94 iterations in 14.59 seconds (32.95 work units)
Sub-optimal termination - objective 4.99100690e+03


Root crossover log...

   19527 DPushes remaining with DInf 0.0000000e+00                15s
       0 DPushes remaining with DInf 0.0000000e+00                15s

  119332 PPushes remaining with PInf 1.5199637e+00                15s
  104156 PPushes remaining with PInf 1.4780287e+00                15s
   32321 PPushes remaining with PInf 7.8832527e-01                20s
       0 PPushes remaining with PInf 0.0000000e+00                25s

  Push phase complete: Pinf 0.0000000e+00, Dinf 8.1164636e+05     25s


Root simplex log...

Iteration    Objective       Primal Inf.    Dual Inf.      Time
  131077    4.9895342e+03   0.000000e+00   8.116464e+05     25s
  131257    4.9893715e+03   0.000000e+00   4.419555e+05     25s
  140710    4.9878245e+03   0.000000e+00   0.000000e+00     30s
Concurrent spin time: 4.49s (can be avoided by choosing Method=3)

Solved with dual simplex

Root simplex log...

Iteration    Objective       Primal Inf.    Dual Inf.      Time
   64171    4.9878245e+03   0.000000e+00   0.000000e+00     34s

Root relaxation: objective 4.987825e+03, 64171 iterations, 29.67 seconds (67.50 work units)
Total elapsed time = 34.05s (DegenMoves)

    Nodes    |    Current Node    |     Objective Bounds      |     Work
 Expl Unexpl |  Obj  Depth IntInf | Incumbent    BestBd   Gap | It/Node Time

     0     0 4987.82454    0 1633          - 4987.82454      -     -   35s
     0     0 4988.18194    0 1598          - 4988.18194      -     -   37s
H    0     0                    30300.000000 4988.18194  83.5%     -   41s
     0     0 4992.95532    0 1699 30300.0000 4992.95532  83.5%     -   47s
H    0     0                    24311.000000 4993.63405  79.5%     -   48s
H    0     0                    23563.000000 4993.63405  78.8%     -   48s
H    0     0                    23110.000000 4993.63405  78.4%     -   49s
H    0     0                    23027.000000 4993.63405  78.3%     -   49s
H    0     0                    21273.000000 4993.63405  76.5%     -   49s
H    0     0                    20678.000000 4993.63405  75.9%     -   49s
H    0     0                    19171.000000 4993.63405  74.0%     -   49s
H    0     0                    19077.000000 4993.63405  73.8%     -   49s
H    0     0                    19062.000000 4993.63405  73.8%     -   49s
H    0     0                    18557.000000 4993.63405  73.1%     -   49s
H    0     0                    18366.000000 4993.63405  72.8%     -   49s
H    0     0                    18290.000000 4993.63405  72.7%     -   49s
H    0     0                    18287.000000 4993.63405  72.7%     -   49s
H    0     0                    17962.000000 4993.63405  72.2%     -   49s
H    0     0                    17910.000000 4993.63405  72.1%     -   49s
H    0     0                    17887.000000 4993.63405  72.1%     -   49s
H    0     0                    17092.000000 4993.63405  70.8%     -   49s
H    0     0                    16727.000000 4993.63405  70.1%     -   49s
H    0     0                    16706.000000 4993.63405  70.1%     -   49s
     0     0 5044.84171    0 1759 16706.0000 5044.84171  69.8%     -   59s
     0     0 5044.84171    0 1747 16706.0000 5044.84171  69.8%     -   60s
     0     0 5044.84171    0 1741 16706.0000 5044.84171  69.8%     -   60s
     0     0 5044.84171    0 1739 16706.0000 5044.84171  69.8%     -   61s
     0     0 5044.86237    0 1717 16706.0000 5044.86237  69.8%     -   61s
     0     0 5044.86237    0 1717 16706.0000 5044.86237  69.8%     -   61s
     0     0 5044.86237    0 1714 16706.0000 5044.86237  69.8%     -   61s
     0     0 5044.86237    0 1714 16706.0000 5044.86237  69.8%     -   62s
     0     0 5044.86237    0 1717 16706.0000 5044.86237  69.8%     -   62s
     0     0 5044.86237    0 1704 16706.0000 5044.86237  69.8%     -   62s
     0     0 5044.86237    0 1701 16706.0000 5044.86237  69.8%     -   62s
     0     0 5070.35207    0 1806 16706.0000 5070.35207  69.6%     -   72s
     0     0 5070.35207    0 1806 16706.0000 5070.35207  69.6%     -   72s
     0     0 5070.35207    0 1802 16706.0000 5070.35207  69.6%     -   72s
     0     0 5070.46108    0 1794 16706.0000 5070.46108  69.6%     -   73s
     0     0 5070.46108    0 1792 16706.0000 5070.46108  69.6%     -   73s
     0     0 5070.46108    0 1792 16706.0000 5070.46108  69.6%     -   73s
     0     0 5070.46108    0 1792 16706.0000 5070.46108  69.6%     -   73s
     0     0 5070.46108    0 1791 16706.0000 5070.46108  69.6%     -   73s
     0     0 5070.46108    0 1802 16706.0000 5070.46108  69.6%     -   74s
     0     0 5070.46108    0 1802 16706.0000 5070.46108  69.6%     -   74s
     0     0 5070.46108    0 1802 16706.0000 5070.46108  69.6%     -   74s
     0     0 5070.83828    0 1805 16706.0000 5070.83828  69.6%     -   75s
     0     0 5070.83828    0 1807 16706.0000 5070.83828  69.6%     -   75s
     0     0 5070.83828    0 1805 16706.0000 5070.83828  69.6%     -   75s
     0     0 5070.83828    0 1803 16706.0000 5070.83828  69.6%     -   75s
     0     0 5071.11676    0 1819 16706.0000 5071.11676  69.6%     -   77s
     0     0 5071.14706    0 1780 16706.0000 5071.14706  69.6%     -   77s
     0     0 5071.15568    0 1795 16706.0000 5071.15568  69.6%     -   77s
     0     0 5071.15568    0 1795 16706.0000 5071.15568  69.6%     -   78s
     0     0 5083.55548    0 1910 16706.0000 5083.55548  69.6%     -   85s
H    0     0                    16677.000000 5083.58214  69.5%     -   86s
H    0     0                    16294.000000 5083.58214  68.8%     -   87s
H    0     0                    15250.000000 5083.58214  66.7%     -   87s
H    0     0                    15151.000000 5083.58214  66.4%     -   88s
H    0     0                    14866.000000 5083.58214  65.8%     -   90s
H    0     0                    14822.000000 5083.58214  65.7%     -   90s
H    0     0                    14602.000000 5083.58214  65.2%     -   91s
H    0     0                    14575.000000 5083.58214  65.1%     -   92s
H    0     0                    14501.000000 5083.58214  64.9%     -   93s
H    0     0                    14202.000000 5083.58214  64.2%     -   93s
H    0     0                    14186.000000 5083.58214  64.2%     -   93s
H    0     0                    14173.000000 5083.58214  64.1%     -   93s
H    0     0                    13870.000000 5083.58214  63.3%     -   94s
H    0     0                    13846.000000 5083.58214  63.3%     -   94s
H    0     0                    13831.000000 5083.58214  63.2%     -   94s
H    0     0                    13260.000000 5083.58214  61.7%     -   94s
H    0     0                    13216.000000 5083.58214  61.5%     -   94s
H    0     0                    13162.000000 5083.58214  61.4%     -   95s
H    0     0                    13092.000000 5083.58214  61.2%     -   95s
H    0     0                    12860.000000 5083.58214  60.5%     -   97s
H    0     0                    12369.000000 5083.58214  58.9%     -   97s
H    0     0                    12320.000000 5083.58214  58.7%     -   99s
H    0     0                    12268.000000 5083.58214  58.6%     -  101s
H    0     0                    12209.000000 5083.58214  58.4%     -  102s
H    0     0                    12186.000000 5083.58214  58.3%     -  102s
H    0     0                    12183.000000 5083.58214  58.3%     -  102s
H    0     0                    12173.000000 5083.58214  58.2%     -  102s
H    0     0                    12137.000000 5083.58214  58.1%     -  102s
H    0     0                    12099.000000 5083.58214  58.0%     -  102s
H    0     0                    11817.000000 5083.58214  57.0%     -  103s
H    0     0                    11793.000000 5083.58214  56.9%     -  103s
H    0     0                    11792.000000 5083.58214  56.9%     -  103s
H    0     0                    11790.000000 5083.58214  56.9%     -  103s
H    0     0                    11738.000000 5083.58214  56.7%     -  103s
H    0     0                    11689.000000 5083.58214  56.5%     -  104s
H    0     0                    11687.000000 5083.58214  56.5%     -  104s
H    0     0                    11638.000000 5083.58214  56.3%     -  104s
H    0     0                    11634.000000 5083.58214  56.3%     -  104s
H    0     0                    11533.000000 5083.58214  55.9%     -  106s
H    0     0                    11350.000000 5083.58214  55.2%     -  106s
H    0     0                    11285.000000 5083.58214  55.0%     -  106s
H    0     0                    11239.000000 5083.58214  54.8%     -  106s
H    0     0                    11218.000000 5083.58214  54.7%     -  107s
H    0     0                    11213.000000 5083.58214  54.7%     -  107s
H    0     0                    11211.000000 5083.58214  54.7%     -  107s
H    0     0                    11196.000000 5083.58214  54.6%     -  108s
H    0     0                    11170.000000 5083.58214  54.5%     -  108s
     0     0 5127.99830    0 2049 11170.0000 5127.99830  54.1%     -  124s
     0     0 5128.68915    0 2031 11170.0000 5128.68915  54.1%     -  127s
     0     0 5128.70765    0 2005 11170.0000 5128.70765  54.1%     -  128s
     0     0 5134.00403    0 1982 11170.0000 5134.00403  54.0%     -  136s
     0     0 5134.05272    0 1938 11170.0000 5134.05272  54.0%     -  137s
     0     0 5134.05747    0 1944 11170.0000 5134.05747  54.0%     -  138s
     0     0 5135.09703    0 2076 11170.0000 5135.09703  54.0%     -  141s
     0     0 5135.09726    0 2071 11170.0000 5135.09726  54.0%     -  142s
     0     0 5135.25164    0 2051 11170.0000 5135.25164  54.0%     -  143s
     0     0 5135.26304    0 2074 11170.0000 5135.26304  54.0%     -  144s
     0     0 5380.79787    0 2207 11170.0000 5380.79787  51.8%     -  189s
     0     0 5384.16096    0 2187 11170.0000 5384.16096  51.8%     -  194s
     0     0 5385.66616    0 2202 11170.0000 5385.66616  51.8%     -  198s
     0     0 5385.83405    0 2205 11170.0000 5385.83405  51.8%     -  199s
     0     0 5386.40323    0 2142 11170.0000 5386.40323  51.8%     -  202s
     0     0 5386.56119    0 2182 11170.0000 5386.56119  51.8%     -  204s
     0     0 5386.65622    0 2209 11170.0000 5386.65622  51.8%     -  205s
     0     0 5386.70315    0 2104 11170.0000 5386.70315  51.8%     -  206s
     0     0 5386.70343    0 2098 11170.0000 5386.70343  51.8%     -  206s
     0     0 5386.82586    0 2176 11170.0000 5386.82586  51.8%     -  207s
     0     0 5386.84325    0 2141 11170.0000 5386.84325  51.8%     -  207s
H    0     0                    11133.000000 5386.85029  51.6%     -  208s
H    0     0                    11031.000000 5386.85029  51.2%     -  208s
H    0     0                    11028.000000 5386.85029  51.2%     -  208s
H    0     0                    11026.000000 5386.85029  51.1%     -  208s
H    0     0                    11021.000000 5386.85029  51.1%     -  208s
H    0     0                    11017.000000 5386.85029  51.1%     -  208s
H    0     0                    11004.000000 5386.85029  51.0%     -  208s
H    0     0                    11003.000000 5386.85029  51.0%     -  208s
H    0     0                    10991.000000 5386.85029  51.0%     -  208s
H    0     0                    10982.000000 5386.85029  50.9%     -  208s
H    0     0                    10976.000000 5386.85029  50.9%     -  208s
H    0     0                    10970.000000 5386.85029  50.9%     -  209s
H    0     0                    10964.000000 5386.85029  50.9%     -  209s
H    0     0                    10961.000000 5386.85029  50.9%     -  209s
     0     0 5395.81492    0 2175 10961.0000 5395.81492  50.8%     -  219s
     0     0 5396.13640    0 2170 10961.0000 5396.13640  50.8%     -  220s
     0     0 5396.13640    0 2172 10961.0000 5396.13640  50.8%     -  220s
     0     0 5396.14152    0 2149 10961.0000 5396.14152  50.8%     -  221s
     0     0 5396.78068    0 2155 10961.0000 5396.78068  50.8%     -  224s
     0     0 5396.88676    0 2234 10961.0000 5396.88676  50.8%     -  225s
     0     0 5396.90455    0 2232 10961.0000 5396.90455  50.8%     -  226s
     0     0 5568.96258    0 2100 10961.0000 5568.96258  49.2%     -  254s
     0     0 5576.47959    0 2070 10961.0000 5576.47959  49.1%     -  261s
     0     0 5578.44611    0 2116 10961.0000 5578.44611  49.1%     -  265s
     0     0 5579.12277    0 2059 10961.0000 5579.12277  49.1%     -  268s
H    0     0                    10950.000000 5579.49256  49.0%     -  269s
     0     0 5586.86871    0 2093 10950.0000 5586.86871  49.0%     -  277s
     0     0 5586.86872    0 2087 10950.0000 5586.86872  49.0%     -  277s
     0     0 5587.06958    0 2093 10950.0000 5587.06958  49.0%     -  279s
     0     0 5587.07619    0 2083 10950.0000 5587.07619  49.0%     -  280s
     0     0 5795.89391    0 2455 10950.0000 5795.89391  47.1%     -  315s
     0     0 5803.54148    0 2417 10950.0000 5803.54148  47.0%     -  325s
     0     0 5804.52455    0 2383 10950.0000 5804.52455  47.0%     -  329s
     0     0 5804.56545    0 2402 10950.0000 5804.56545  47.0%     -  331s
     0     0 5804.57544    0 2373 10950.0000 5804.57544  47.0%     -  331s
     0     0 5804.57603    0 2376 10950.0000 5804.57603  47.0%     -  331s
H    0     0                    10924.000000 5804.63215  46.9%     -  332s
H    0     0                    10784.000000 5804.63215  46.2%     -  332s
H    0     0                    10780.000000 5804.63215  46.2%     -  332s
H    0     0                    10775.000000 5804.63215  46.1%     -  332s
H    0     0                    10772.000000 5804.63215  46.1%     -  332s
H    0     0                    10763.000000 5804.63215  46.1%     -  332s
H    0     0                    10760.000000 5804.63215  46.1%     -  332s
     0     0 5824.83880    0 2489 10760.0000 5824.83880  45.9%     -  350s
     0     0 5825.00107    0 2506 10760.0000 5825.00107  45.9%     -  352s
     0     0 5825.03763    0 2491 10760.0000 5825.03763  45.9%     -  353s
     0     0 5825.03767    0 2504 10760.0000 5825.03767  45.9%     -  353s
     0     0 5826.81603    0 2523 10760.0000 5826.81603  45.8%     -  360s
     0     0 5826.81603    0 2523 10760.0000 5826.81603  45.8%     -  360s
     0     0 5827.39751    0 2506 10760.0000 5827.39751  45.8%     -  363s
     0     0 5827.40239    0 2519 10760.0000 5827.40239  45.8%     -  363s
     0     0 6018.88793    0 2484 10760.0000 6018.88793  44.1%     -  404s
     0     0 6025.22703    0 2476 10760.0000 6025.22703  44.0%     -  415s
     0     0 6026.18989    0 2467 10760.0000 6026.18989  44.0%     -  420s
     0     0 6026.54871    0 2496 10760.0000 6026.54871  44.0%     -  424s
     0     0 6026.55004    0 2491 10760.0000 6026.55004  44.0%     -  424s
     0     0 6026.58720    0 2499 10760.0000 6026.58720  44.0%     -  425s
     0     0 6026.64631    0 2556 10760.0000 6026.64631  44.0%     -  427s
     0     0 6026.64636    0 2552 10760.0000 6026.64636  44.0%     -  427s
H    0     0                    10756.000000 6026.65053  44.0%     -  428s
     0     0 6037.04738    0 2546 10756.0000 6037.04738  43.9%     -  442s
     0     0 6037.19811    0 2595 10756.0000 6037.19811  43.9%     -  444s
     0     0 6037.20021    0 2576 10756.0000 6037.20021  43.9%     -  444s
     0     0 6037.71999    0 2580 10756.0000 6037.71999  43.9%     -  448s
     0     0 6037.90119    0 2643 10756.0000 6037.90119  43.9%     -  450s
     0     0 6037.90132    0 2610 10756.0000 6037.90132  43.9%     -  450s
     0     0 6037.96822    0 2641 10756.0000 6037.96822  43.9%     -  452s
     0     0 6249.36791    0 2557 10756.0000 6249.36791  41.9%     -  491s
     0     0 6259.85628    0 2539 10756.0000 6259.85628  41.8%     -  505s
     0     0 6262.29107    0 2583 10756.0000 6262.29107  41.8%     -  512s
     0     0 6262.78582    0 2584 10756.0000 6262.78582  41.8%     -  515s
     0     0 6262.92494    0 2565 10756.0000 6262.92494  41.8%     -  517s
     0     0 6263.01298    0 2581 10756.0000 6263.01298  41.8%     -  518s
     0     0 6263.02465    0 2567 10756.0000 6263.02465  41.8%     -  519s
H    0     0                    10742.000000 6263.03027  41.7%     -  520s
H    0     0                    10718.000000 6263.03027  41.6%     -  520s
H    0     0                    10583.000000 6263.03027  40.8%     -  520s
H    0     0                    10559.000000 6263.03027  40.7%     -  520s
H    0     0                    10556.000000 6263.03027  40.7%     -  520s
H    0     0                    10539.000000 6263.03027  40.6%     -  520s
H    0     0                    10529.000000 6263.03027  40.5%     -  520s
H    0     0                    10519.000000 6263.03027  40.5%     -  520s
H    0     0                    10512.000000 6263.03027  40.4%     -  520s
H    0     0                    10502.000000 6263.03027  40.4%     -  520s
H    0     0                    10500.000000 6263.03027  40.4%     -  520s
H    0     0                    10474.000000 6263.03027  40.2%     -  520s
     0     0 6273.92596    0 2787 10474.0000 6273.92596  40.1%     -  538s
     0     0 6274.09905    0 2780 10474.0000 6274.09905  40.1%     -  540s
     0     0 6275.38749    0 2815 10474.0000 6275.38749  40.1%     -  547s
     0     0 6275.39153    0 2841 10474.0000 6275.39153  40.1%     -  548s
     0     0 6275.39166    0 2835 10474.0000 6275.39166  40.1%     -  548s
     0     0 6275.53800    0 2792 10474.0000 6275.53800  40.1%     -  550s
     0     0 6440.24601    0 2636 10474.0000 6440.24601  38.5%     -  585s
     0     0 6446.39808    0 2545 10474.0000 6446.39808  38.5%     -  597s
     0     0          -    0      10474.0000 6446.39808  38.5%     -  600s

Cutting planes:
  Learned: 2
  Gomory: 43
  Cover: 171
  Implied bound: 98
  Clique: 505
  MIR: 268
  StrongCG: 6
  Flow cover: 4
  GUB cover: 103
  Zero half: 1804
  RLT: 1078
  Relax-and-lift: 93
  BQP: 11
  PSD: 4

Explored 1 nodes (429519 simplex iterations) in 600.09 seconds (1695.11 work units)
Thread count was 8 (of 12 available processors)

Solution count 10: 10474 10500 10502 ... 10583

Time limit reached
Best objective 1.047400000000e+04, best bound 6.447000000000e+03, gap 38.4476%
